50
711
4
96
7
56
81
0 1
0 3
0 4
0 7
0 8
0 9
0 10
0 11
0 12
0 13
0 14
0 17
0 19
0 21
0 22
0 23
0 24
0 25
0 27
0 28
0 29
0 30
0 31
0 32
0 34
0 36
0 37
0 39
0 40
0 41
0 42
0 45
0 46
0 47
1 2
1 4
1 5
1 6
1 7
1 9
1 13
1 16
1 17
1 19
1 21
1 22
1 23
1 24
1 26
1 30
1 34
1 36
1 40
1 42
1 43
1 44
1 45
1 47
1 49
2 3
2 6
2 7
2 9
2 15
2 18
2 20
2 21
2 22
2 24
2 25
2 26
2 27
2 29
2 32
2 33
2 36
2 37
2 38
2 40
2 41
2 42
2 43
3 4
3 5
3 6
3 8
3 10
3 12
3 13
3 14
3 15
3 19
3 20
3 21
3 22
3 24
3 26
3 29
3 30
3 31
3 33
3 34
3 35
3 39
3 41
3 43
3 44
3 46
3 47
3 48
4 8
4 11
4 13
4 14
4 15
4 17
4 19
4 22
4 23
4 24
4 27
4 28
4 29
4 30
4 31
4 35
4 36
4 39
4 40
4 42
4 43
4 45
4 47
4 49
5 7
5 8
5 10
5 12
5 13
5 15
5 17
5 18
5 19
5 21
5 22
5 23
5 24
5 26
5 27
5 28
5 30
5 31
5 32
5 34
5 35
5 36
5 38
5 40
5 42
5 46
5 49
6 8
6 10
6 12
6 17
6 18
6 21
6 25
6 26
6 27
6 28
6 30
6 32
6 33
6 36
6 37
6 38
6 40
6 41
6 42
6 45
6 46
6 47
7 9
7 11
7 13
7 14
7 15
7 16
7 20
7 24
7 26
7 27
7 28
7 29
7 30
7 31
7 32
7 33
7 34
7 35
7 36
7 38
7 39
7 40
7 43
7 45
7 46
7 47
7 49
8 9
8 17
8 18
8 21
8 22
8 26
8 28
8 29
8 31
8 32
8 33
8 34
8 35
8 37
8 38
8 39
8 40
8 43
8 46
8 47
8 48
8 49
9 10
9 13
9 14
9 15
9 16
9 17
9 21
9 23
9 24
9 25
9 27
9 28
9 29
9 31
9 34
9 35
9 36
9 39
9 42
9 43
9 45
9 46
9 47
9 48
10 12
10 15
10 16
10 17
10 18
10 21
10 22
10 23
10 24
10 25
10 28
10 29
10 30
10 32
10 37
10 41
10 42
10 43
10 47
10 49
11 12
11 13
11 15
11 16
11 18
11 19
11 20
11 23
11 24
11 25
11 26
11 27
11 30
11 31
11 33
11 34
11 35
11 36
11 42
11 43
11 48
12 13
12 14
12 18
12 19
12 20
12 23
12 25
12 26
12 27
12 28
12 29
12 31
12 32
12 34
12 35
12 36
12 37
12 39
12 40
12 43
12 46
12 47
12 48
12 49
13 14
13 16
13 17
13 18
13 20
13 23
13 24
13 25
13 27
13 29
13 32
13 33
13 34
13 35
13 36
13 38
13 40
13 42
13 43
13 44
13 47
13 48
13 49
14 16
14 17
14 18
14 22
14 23
14 25
14 27
14 28
14 29
14 31
14 32
14 33
14 35
14 37
14 40
14 41
14 45
14 49
15 16
15 18
15 21
15 26
15 27
15 29
15 31
15 32
15 36
15 37
15 38
15 40
15 42
15 43
15 45
15 46
15 47
15 49
16 18
16 19
16 20
16 21
16 22
16 23
16 25
16 27
16 28
16 29
16 30
16 31
16 35
16 36
16 39
16 41
16 42
16 44
16 45
16 46
16 49
17 21
17 25
17 26
17 28
17 29
17 31
17 36
17 37
17 39
17 40
17 45
17 46
17 48
18 19
18 20
18 25
18 27
18 29
18 30
18 31
18 32
18 35
18 37
18 38
18 39
18 40
18 41
18 42
18 43
18 44
18 45
18 46
18 47
18 49
19 24
19 25
19 26
19 27
19 29
19 31
19 32
19 34
19 35
19 36
19 39
19 40
19 42
19 44
19 45
19 47
19 49
20 21
20 22
20 23
20 24
20 28
20 32
20 33
20 34
20 35
20 36
20 39
20 40
20 42
20 43
20 45
20 46
20 49
21 22
21 23
21 29
21 30
21 34
21 37
21 38
21 40
21 42
21 45
21 49
22 23
22 24
22 26
22 29
22 30
22 31
22 32
22 35
22 36
22 37
22 39
22 42
22 43
22 44
22 45
22 46
22 47
22 48
22 49
23 24
23 25
23 26
23 27
23 28
23 29
23 30
23 31
23 33
23 34
23 36
23 38
23 39
23 40
23 42
23 44
23 46
23 48
23 49
24 27
24 28
24 30
24 32
24 34
24 35
24 36
24 37
24 39
24 41
24 42
24 43
24 44
24 45
24 46
24 48
24 49
25 26
25 28
25 29
25 30
25 32
25 34
25 35
25 36
25 38
25 40
25 42
25 43
25 44
25 45
25 46
25 48
26 27
26 28
26 34
26 38
26 39
26 40
26 41
26 43
26 46
26 49
27 28
27 29
27 30
27 31
27 32
27 33
27 34
27 35
27 36
27 39
27 41
27 44
27 46
27 48
27 49
28 30
28 31
28 34
28 36
28 37
28 38
28 39
28 41
28 42
28 43
28 44
28 45
28 46
28 47
28 48
29 30
29 31
29 32
29 33
29 36
29 39
29 40
29 42
29 43
29 44
29 46
29 48
30 31
30 34
30 35
30 40
30 42
30 43
30 45
30 48
30 49
31 32
31 33
31 34
31 38
31 39
31 40
31 41
31 42
31 43
31 44
31 46
31 48
32 35
32 38
32 39
32 40
32 41
32 42
32 43
32 44
32 48
33 36
33 38
33 39
33 40
33 43
33 44
33 45
33 47
33 48
34 35
34 37
34 42
34 43
34 45
34 46
34 47
34 48
34 49
35 38
35 40
35 41
35 42
35 43
35 46
35 49
36 38
36 41
36 42
36 43
36 45
36 46
36 47
36 48
36 49
37 43
37 44
37 45
37 46
37 47
37 48
37 49
38 39
38 40
38 41
38 42
38 43
38 45
38 47
38 48
39 40
39 41
39 47
39 48
40 41
40 43
40 45
40 46
40 48
41 42
41 43
41 45
41 46
42 43
42 44
42 46
42 47
43 45
43 46
43 48
43 49
44 46
44 47
44 48
45 47
46 48
46 49
47 48
48 49
35 4 45 11 12 42 28 32 3 43 48 27 49 18 13
7 15 30 33 46 19 17 6 2 39 24 5 34 1 23
29 44 31 47 14 20 25 16 0 40 26 8 37 9 38
41 36 21 22 10
